# Some comments
# for testing
# this file is a square graph
# optimum min bq value is -2 at 0110
4 5
1 2 0.5
1 4 -1.2
2 3 -2
3 4 0.6
4 4 0.5
